20
1 0 3
2 0 4
3 0 1
3 1 2
3 2 1
4 0 4
4 2 4
5 0 2
5 2 4
5 4 3
6 0 2
6 1 3
6 3 3
7 1 1
7 3 4
7 5 1
7 6 4
8 1 1
8 2 4
8 3 3
8 4 3
8 6 1
9 0 3
9 5 3
10 0 3
10 1 2
10 2 4
10 8 4
10 9 1
11 1 2
11 2 2
11 4 2
11 5 1
11 9 3
11 10 4
12 0 2
12 1 2
12 2 2
12 3 4
12 4 3
12 6 3
12 8 4
13 0 4
13 2 4
13 3 4
13 4 3
13 7 4
13 9 3
13 12 1
14 1 1
14 2 4
14 4 2
14 5 2
14 7 4
14 8 4
14 9 2
14 10 3
14 11 1
14 12 3
15 0 2
15 2 1
15 4 3
15 10 1
15 11 4
15 12 1
15 14 1
16 1 1
16 2 4
16 4 2
16 5 2
16 6 3
16 8 2
16 11 3
16 12 1
16 13 1
16 15 4
17 3 4
17 4 1
17 5 1
17 6 4
17 7 3
17 8 4
17 9 4
17 11 4
17 12 1
17 13 3
17 16 4
18 0 1
18 3 1
18 4 4
18 8 3
18 10 1
18 11 1
18 14 1
18 16 3
18 17 2
19 0 1
19 1 4
19 3 1
19 4 1
19 5 4
19 6 3
19 8 3
19 9 2
19 11 4
19 12 1
19 13 1
19 15 2
19 16 4
19 17 3
